
Gurobi 9.5.2 (win64) logging started Mon Nov  6 16:51:53 2023

Set parameter LogFile to value "./ccga_results/2023-11-06 16-51-51-397/MSP_TimeStampConvert_gurobi_log.txt"
Set parameter TimeLimit to value 7199

Gurobi 9.5.2 (win64) logging started Mon Nov  6 16:51:53 2023

Set parameter LogFile to value "./ccga_results/2023-11-06 16-51-51-397/MSP_TimeStampConvert_gurobi_log.txt"
Set parameter TimeLimit to value 7199
Gurobi Optimizer version 9.5.2 build v9.5.2rc0 (win64)
Thread count: 10 physical cores, 20 logical processors, using up to 20 threads
Optimize a model with 1752 rows, 1321 columns and 4350 nonzeros
Model fingerprint: 0x61917b67
Variable types: 25 continuous, 1296 integer (1296 binary)
Coefficient statistics:
  Matrix range     [1e+00, 1e+00]
  Objective range  [1e+00, 1e+00]
  Bounds range     [1e+03, 1e+03]
  RHS range        [1e+00, 1e+00]
Found heuristic solution: objective 24000.000000

Explored 0 nodes (0 simplex iterations) in 0.00 seconds (0.00 work units)
Thread count was 1 (of 20 available processors)

Solution count 1: 24000 

Optimal solution found (tolerance 5.00e-02)
Best objective 2.400000000000e+04, best bound 2.400000000000e+04, gap 0.0000%

User-callback calls 21, time in user-callback 0.00 sec
Set parameter TimeLimit to value 7198
Gurobi Optimizer version 9.5.2 build v9.5.2rc0 (win64)
Thread count: 10 physical cores, 20 logical processors, using up to 20 threads
Optimize a model with 5581 rows, 2401 columns and 17303 nonzeros
Model fingerprint: 0xa1dbcc90
Variable types: 1057 continuous, 1344 integer (1344 binary)
Coefficient statistics:
  Matrix range     [9e-01, 8e+02]
  Objective range  [1e+00, 1e+00]
  Bounds range     [1e+03, 1e+03]
  RHS range        [1e+00, 2e+06]

MIP start from previous solve did not produce a new incumbent solution

Presolve removed 478 rows and 156 columns
Presolve time: 0.04s
Presolved: 5103 rows, 2245 columns, 16082 nonzeros
Variable types: 985 continuous, 1260 integer (1260 binary)

Root relaxation: objective 2.400000e+04, 1031 iterations, 0.01 seconds (0.01 work units)

    Nodes    |    Current Node    |     Objective Bounds      |     Work
 Expl Unexpl |  Obj  Depth IntInf | Incumbent    BestBd   Gap | It/Node Time

*    0     0               0    24000.000000 24000.0000  0.00%     -    0s

Explored 1 nodes (1508 simplex iterations) in 0.10 seconds (0.13 work units)
Thread count was 20 (of 20 available processors)

Solution count 1: 24000 

Optimal solution found (tolerance 5.00e-02)
Best objective 2.400000000000e+04, best bound 2.400000000000e+04, gap 0.0000%

User-callback calls 474, time in user-callback 0.00 sec
Gurobi Optimizer version 9.5.2 build v9.5.2rc0 (win64)
Thread count: 10 physical cores, 20 logical processors, using up to 20 threads
Optimize a model with 9410 rows, 3481 columns and 30256 nonzeros
Model fingerprint: 0x7512b9a9
Variable types: 2089 continuous, 1392 integer (1392 binary)
Coefficient statistics:
  Matrix range     [2e-01, 8e+02]
  Objective range  [1e+00, 1e+00]
  Bounds range     [1e+03, 1e+03]
  RHS range        [1e+00, 2e+06]

MIP start from previous solve produced solution with objective 23978.8 (0.02s)
Loaded MIP start from previous solve with objective 23978.8


Explored 0 nodes (0 simplex iterations) in 0.02 seconds (0.03 work units)
Thread count was 1 (of 20 available processors)

Solution count 1: 23978.8 

Optimal solution found (tolerance 5.00e-02)
Best objective 2.397877351349e+04, best bound 2.400000000000e+04, gap 0.0885%

User-callback calls 35, time in user-callback 0.00 sec
Set parameter TimeLimit to value 7197
Gurobi Optimizer version 9.5.2 build v9.5.2rc0 (win64)
Thread count: 10 physical cores, 20 logical processors, using up to 20 threads
Optimize a model with 13239 rows, 4561 columns and 43209 nonzeros
Model fingerprint: 0x53d783c2
Variable types: 3121 continuous, 1440 integer (1440 binary)
Coefficient statistics:
  Matrix range     [2e-01, 8e+02]
  Objective range  [1e+00, 1e+00]
  Bounds range     [1e+03, 1e+03]
  RHS range        [1e+00, 2e+06]

MIP start from previous solve produced solution with objective 23957.8 (0.03s)
Loaded MIP start from previous solve with objective 23957.8


Explored 0 nodes (0 simplex iterations) in 0.03 seconds (0.04 work units)
Thread count was 1 (of 20 available processors)

Solution count 1: 23957.8 

Optimal solution found (tolerance 5.00e-02)
Best objective 2.395777658023e+04, best bound 2.400000000000e+04, gap 0.1762%

User-callback calls 40, time in user-callback 0.00 sec
Gurobi Optimizer version 9.5.2 build v9.5.2rc0 (win64)
Thread count: 10 physical cores, 20 logical processors, using up to 20 threads
Optimize a model with 17068 rows, 5641 columns and 56162 nonzeros
Model fingerprint: 0x539a3c03
Variable types: 4153 continuous, 1488 integer (1488 binary)
Coefficient statistics:
  Matrix range     [2e-01, 8e+02]
  Objective range  [1e+00, 1e+00]
  Bounds range     [1e+03, 1e+03]
  RHS range        [1e+00, 2e+06]

MIP start from previous solve produced solution with objective 23937 (0.04s)
Loaded MIP start from previous solve with objective 23937


Explored 0 nodes (0 simplex iterations) in 0.04 seconds (0.05 work units)
Thread count was 1 (of 20 available processors)

Solution count 1: 23937 

Optimal solution found (tolerance 5.00e-02)
Best objective 2.393700667324e+04, best bound 2.400000000000e+04, gap 0.2632%

User-callback calls 45, time in user-callback 0.00 sec
Gurobi Optimizer version 9.5.2 build v9.5.2rc0 (win64)
Thread count: 10 physical cores, 20 logical processors, using up to 20 threads
Optimize a model with 20897 rows, 6721 columns and 69115 nonzeros
Model fingerprint: 0x8f335e3b
Variable types: 5185 continuous, 1536 integer (1536 binary)
Coefficient statistics:
  Matrix range     [2e-01, 8e+02]
  Objective range  [1e+00, 1e+00]
  Bounds range     [1e+03, 1e+03]
  RHS range        [1e+00, 2e+06]

MIP start from previous solve produced solution with objective 23916.5 (0.05s)
Loaded MIP start from previous solve with objective 23916.5


Explored 0 nodes (0 simplex iterations) in 0.05 seconds (0.06 work units)
Thread count was 1 (of 20 available processors)

Solution count 1: 23916.5 

Optimal solution found (tolerance 5.00e-02)
Best objective 2.391646129383e+04, best bound 2.400000000000e+04, gap 0.3493%

User-callback calls 44, time in user-callback 0.00 sec
Set parameter TimeLimit to value 7196
Gurobi Optimizer version 9.5.2 build v9.5.2rc0 (win64)
Thread count: 10 physical cores, 20 logical processors, using up to 20 threads
Optimize a model with 24726 rows, 7801 columns and 82068 nonzeros
Model fingerprint: 0x466908c9
Variable types: 6217 continuous, 1584 integer (1584 binary)
Coefficient statistics:
  Matrix range     [2e-01, 8e+02]
  Objective range  [1e+00, 1e+00]
  Bounds range     [1e+03, 1e+03]
  RHS range        [1e+00, 2e+06]

MIP start from previous solve produced solution with objective 23896.1 (0.06s)
Loaded MIP start from previous solve with objective 23896.1


Explored 0 nodes (0 simplex iterations) in 0.06 seconds (0.08 work units)
Thread count was 1 (of 20 available processors)

Solution count 1: 23896.1 

Optimal solution found (tolerance 5.00e-02)
Best objective 2.389613797124e+04, best bound 2.400000000000e+04, gap 0.4346%

User-callback calls 50, time in user-callback 0.00 sec
Gurobi Optimizer version 9.5.2 build v9.5.2rc0 (win64)
Thread count: 10 physical cores, 20 logical processors, using up to 20 threads
Optimize a model with 28555 rows, 8881 columns and 95021 nonzeros
Model fingerprint: 0xc791b6f9
Variable types: 7249 continuous, 1632 integer (1632 binary)
Coefficient statistics:
  Matrix range     [2e-01, 8e+02]
  Objective range  [1e+00, 1e+00]
  Bounds range     [1e+03, 1e+03]
  RHS range        [1e+00, 2e+06]

MIP start from previous solve produced solution with objective 23876 (0.06s)
Loaded MIP start from previous solve with objective 23876


Explored 0 nodes (0 simplex iterations) in 0.07 seconds (0.09 work units)
Thread count was 1 (of 20 available processors)

Solution count 1: 23876 

Optimal solution found (tolerance 5.00e-02)
Best objective 2.387603426236e+04, best bound 2.400000000000e+04, gap 0.5192%

User-callback calls 54, time in user-callback 0.00 sec
Set parameter TimeLimit to value 7195
Gurobi Optimizer version 9.5.2 build v9.5.2rc0 (win64)
Thread count: 10 physical cores, 20 logical processors, using up to 20 threads
Optimize a model with 32384 rows, 9961 columns and 107974 nonzeros
Model fingerprint: 0xbda911f3
Variable types: 8281 continuous, 1680 integer (1680 binary)
Coefficient statistics:
  Matrix range     [2e-01, 8e+02]
  Objective range  [1e+00, 1e+00]
  Bounds range     [1e+03, 1e+03]
  RHS range        [1e+00, 2e+06]

MIP start from previous solve produced solution with objective 23856.1 (0.08s)
Loaded MIP start from previous solve with objective 23856.1


Explored 0 nodes (0 simplex iterations) in 0.08 seconds (0.11 work units)
Thread count was 1 (of 20 available processors)

Solution count 1: 23856.1 

Optimal solution found (tolerance 5.00e-02)
Best objective 2.385614775141e+04, best bound 2.400000000000e+04, gap 0.6030%

User-callback calls 55, time in user-callback 0.00 sec
Gurobi Optimizer version 9.5.2 build v9.5.2rc0 (win64)
Thread count: 10 physical cores, 20 logical processors, using up to 20 threads
Optimize a model with 36213 rows, 11041 columns and 120927 nonzeros
Model fingerprint: 0xcf04bcfb
Variable types: 9313 continuous, 1728 integer (1728 binary)
Coefficient statistics:
  Matrix range     [2e-01, 8e+02]
  Objective range  [1e+00, 1e+00]
  Bounds range     [1e+03, 1e+03]
  RHS range        [1e+00, 2e+06]

MIP start from previous solve produced solution with objective 23836.5 (0.09s)
Loaded MIP start from previous solve with objective 23836.5


Explored 0 nodes (0 simplex iterations) in 0.09 seconds (0.13 work units)
Thread count was 1 (of 20 available processors)

Solution count 1: 23836.5 

Optimal solution found (tolerance 5.00e-02)
Best objective 2.383647604959e+04, best bound 2.400000000000e+04, gap 0.6860%

User-callback calls 64, time in user-callback 0.00 sec
Set parameter TimeLimit to value 7194
Gurobi Optimizer version 9.5.2 build v9.5.2rc0 (win64)
Thread count: 10 physical cores, 20 logical processors, using up to 20 threads
Optimize a model with 40042 rows, 12121 columns and 133880 nonzeros
Model fingerprint: 0x7383b427
Variable types: 10345 continuous, 1776 integer (1776 binary)
Coefficient statistics:
  Matrix range     [2e-01, 8e+02]
  Objective range  [1e+00, 1e+00]
  Bounds range     [1e+03, 1e+03]
  RHS range        [1e+00, 2e+06]

MIP start from previous solve produced solution with objective 23808.7 (0.10s)
Loaded MIP start from previous solve with objective 23808.7


Explored 0 nodes (0 simplex iterations) in 0.10 seconds (0.14 work units)
Thread count was 1 (of 20 available processors)

Solution count 1: 23808.7 

Optimal solution found (tolerance 5.00e-02)
Best objective 2.380872193866e+04, best bound 2.400000000000e+04, gap 0.8034%

User-callback calls 65, time in user-callback 0.00 sec
Set parameter TimeLimit to value 7193
Gurobi Optimizer version 9.5.2 build v9.5.2rc0 (win64)
Thread count: 10 physical cores, 20 logical processors, using up to 20 threads
Optimize a model with 43871 rows, 13201 columns and 146833 nonzeros
Model fingerprint: 0x7ed4f90d
Variable types: 11377 continuous, 1824 integer (1824 binary)
Coefficient statistics:
  Matrix range     [2e-01, 8e+02]
  Objective range  [1e+00, 1e+00]
  Bounds range     [1e+03, 1e+03]
  RHS range        [1e+00, 2e+06]

MIP start from previous solve produced solution with objective 23661.6 (0.11s)
Loaded MIP start from previous solve with objective 23661.6


Explored 0 nodes (0 simplex iterations) in 0.12 seconds (0.16 work units)
Thread count was 1 (of 20 available processors)

Solution count 2: 23661.6 23661.6 

Optimal solution found (tolerance 5.00e-02)
Best objective 2.366157720697e+04, best bound 2.400000000000e+04, gap 1.4303%

User-callback calls 71, time in user-callback 0.00 sec
Set parameter TimeLimit to value 7191
Gurobi Optimizer version 9.5.2 build v9.5.2rc0 (win64)
Thread count: 10 physical cores, 20 logical processors, using up to 20 threads
Optimize a model with 47700 rows, 14281 columns and 159786 nonzeros
Model fingerprint: 0xf71b298e
Variable types: 12409 continuous, 1872 integer (1872 binary)
Coefficient statistics:
  Matrix range     [2e-01, 8e+02]
  Objective range  [1e+00, 1e+00]
  Bounds range     [1e+03, 1e+03]
  RHS range        [1e+00, 2e+06]

MIP start from previous solve produced solution with objective 23516.4 (0.12s)
Loaded MIP start from previous solve with objective 23516.4


Explored 0 nodes (0 simplex iterations) in 0.12 seconds (0.18 work units)
Thread count was 1 (of 20 available processors)

Solution count 2: 23516.4 23516.4 

Optimal solution found (tolerance 5.00e-02)
Best objective 2.351636597052e+04, best bound 2.400000000000e+04, gap 2.0566%

User-callback calls 68, time in user-callback 0.00 sec
Set parameter TimeLimit to value 7189
Gurobi Optimizer version 9.5.2 build v9.5.2rc0 (win64)
Thread count: 10 physical cores, 20 logical processors, using up to 20 threads
Optimize a model with 51529 rows, 15361 columns and 172739 nonzeros
Model fingerprint: 0x6e676351
Variable types: 13441 continuous, 1920 integer (1920 binary)
Coefficient statistics:
  Matrix range     [2e-01, 8e+02]
  Objective range  [1e+00, 1e+00]
  Bounds range     [1e+03, 1e+03]
  RHS range        [1e+00, 2e+06]

MIP start from previous solve produced solution with objective 23373.1 (0.14s)
Loaded MIP start from previous solve with objective 23373.1


Explored 0 nodes (0 simplex iterations) in 0.14 seconds (0.22 work units)
Thread count was 1 (of 20 available processors)

Solution count 2: 23373.1 23373.1 

Optimal solution found (tolerance 5.00e-02)
Best objective 2.337306246935e+04, best bound 2.400000000000e+04, gap 2.6823%

User-callback calls 76, time in user-callback 0.00 sec
Set parameter TimeLimit to value 7187
Gurobi Optimizer version 9.5.2 build v9.5.2rc0 (win64)
Thread count: 10 physical cores, 20 logical processors, using up to 20 threads
Optimize a model with 55358 rows, 16441 columns and 185692 nonzeros
Model fingerprint: 0xec1ea0ab
Variable types: 14473 continuous, 1968 integer (1968 binary)
Coefficient statistics:
  Matrix range     [2e-01, 8e+02]
  Objective range  [1e+00, 1e+00]
  Bounds range     [1e+03, 1e+03]
  RHS range        [1e+00, 2e+06]

MIP start from previous solve produced solution with objective 23231.6 (0.15s)
Loaded MIP start from previous solve with objective 23231.6


Explored 0 nodes (0 simplex iterations) in 0.15 seconds (0.23 work units)
Thread count was 1 (of 20 available processors)

Solution count 2: 23231.6 23231.6 

Optimal solution found (tolerance 5.00e-02)
Best objective 2.323164128843e+04, best bound 2.400000000000e+04, gap 3.3074%

User-callback calls 76, time in user-callback 0.00 sec
Set parameter TimeLimit to value 7186
Gurobi Optimizer version 9.5.2 build v9.5.2rc0 (win64)
Thread count: 10 physical cores, 20 logical processors, using up to 20 threads
Optimize a model with 59187 rows, 17521 columns and 198645 nonzeros
Model fingerprint: 0xb534ceae
Variable types: 15505 continuous, 2016 integer (2016 binary)
Coefficient statistics:
  Matrix range     [2e-01, 8e+02]
  Objective range  [1e+00, 1e+00]
  Bounds range     [1e+03, 1e+03]
  RHS range        [1e+00, 2e+06]

MIP start from previous solve produced solution with objective 23229.5 (0.15s)
Loaded MIP start from previous solve with objective 23229.5


Explored 0 nodes (0 simplex iterations) in 0.15 seconds (0.25 work units)
Thread count was 1 (of 20 available processors)

Solution count 1: 23229.5 

Optimal solution found (tolerance 5.00e-02)
Best objective 2.322950588945e+04, best bound 2.400000000000e+04, gap 3.3169%

User-callback calls 78, time in user-callback 0.00 sec
Gurobi Optimizer version 9.5.2 build v9.5.2rc0 (win64)
Thread count: 10 physical cores, 20 logical processors, using up to 20 threads
Optimize a model with 63016 rows, 18601 columns and 211598 nonzeros
Model fingerprint: 0xc08c66c1
Variable types: 16537 continuous, 2064 integer (2064 binary)
Coefficient statistics:
  Matrix range     [2e-01, 8e+02]
  Objective range  [1e+00, 1e+00]
  Bounds range     [1e+03, 1e+03]
  RHS range        [1e+00, 2e+06]

MIP start from previous solve produced solution with objective 23223.8 (0.16s)
Loaded MIP start from previous solve with objective 23223.8


Explored 0 nodes (0 simplex iterations) in 0.17 seconds (0.27 work units)
Thread count was 1 (of 20 available processors)

Solution count 1: 23223.8 

Optimal solution found (tolerance 5.00e-02)
Best objective 2.322383638727e+04, best bound 2.400000000000e+04, gap 3.3421%

User-callback calls 80, time in user-callback 0.00 sec
Set parameter TimeLimit to value 7185
Gurobi Optimizer version 9.5.2 build v9.5.2rc0 (win64)
Thread count: 10 physical cores, 20 logical processors, using up to 20 threads
Optimize a model with 66845 rows, 19681 columns and 224551 nonzeros
Model fingerprint: 0x39cab6ae
Variable types: 17569 continuous, 2112 integer (2112 binary)
Coefficient statistics:
  Matrix range     [2e-01, 8e+02]
  Objective range  [1e+00, 1e+00]
  Bounds range     [1e+03, 1e+03]
  RHS range        [1e+00, 2e+06]

MIP start from previous solve produced solution with objective 23213 (0.18s)
Loaded MIP start from previous solve with objective 23213


Explored 0 nodes (0 simplex iterations) in 0.18 seconds (0.30 work units)
Thread count was 1 (of 20 available processors)

Solution count 1: 23213 

Optimal solution found (tolerance 5.00e-02)
Best objective 2.321301364267e+04, best bound 2.400000000000e+04, gap 3.3903%

User-callback calls 82, time in user-callback 0.00 sec
Gurobi Optimizer version 9.5.2 build v9.5.2rc0 (win64)
Thread count: 10 physical cores, 20 logical processors, using up to 20 threads
Optimize a model with 70674 rows, 20761 columns and 237504 nonzeros
Model fingerprint: 0xcdf3ad67
Variable types: 18601 continuous, 2160 integer (2160 binary)
Coefficient statistics:
  Matrix range     [2e-01, 8e+02]
  Objective range  [1e+00, 1e+00]
  Bounds range     [1e+03, 1e+03]
  RHS range        [1e+00, 2e+06]

MIP start from previous solve produced solution with objective 23196.9 (0.19s)
Loaded MIP start from previous solve with objective 23196.9


Explored 0 nodes (0 simplex iterations) in 0.19 seconds (0.32 work units)
Thread count was 1 (of 20 available processors)

Solution count 2: 23196.9 23196.9 

Optimal solution found (tolerance 5.00e-02)
Best objective 2.319694434576e+04, best bound 2.400000000000e+04, gap 3.4619%

User-callback calls 90, time in user-callback 0.00 sec
Set parameter TimeLimit to value 7181
Gurobi Optimizer version 9.5.2 build v9.5.2rc0 (win64)
Thread count: 10 physical cores, 20 logical processors, using up to 20 threads
Optimize a model with 74503 rows, 21841 columns and 250457 nonzeros
Model fingerprint: 0xdf134a7b
Variable types: 19633 continuous, 2208 integer (2208 binary)
Coefficient statistics:
  Matrix range     [2e-01, 8e+02]
  Objective range  [1e+00, 1e+00]
  Bounds range     [1e+03, 1e+03]
  RHS range        [1e+00, 2e+06]

MIP start from previous solve produced solution with objective 19992 (0.28s)
Loaded MIP start from previous solve with objective 19992

Presolve removed 7344 rows and 2288 columns
Presolve time: 0.63s
Presolved: 67159 rows, 19553 columns, 222044 nonzeros
Variable types: 18290 continuous, 1263 integer (1260 binary)

Deterministic concurrent LP optimizer: primal and dual simplex (primal and dual model)
Showing first log only...

Root relaxation presolve removed 26 rows and 26 columns
Root relaxation presolved: 67133 rows, 19527 columns, 221992 nonzeros

Concurrent spin time: 0.00s

Solved with dual simplex (dual model)

Root relaxation: objective 2.358086e+04, 29196 iterations, 2.66 seconds (3.61 work units)
Total elapsed time = 5.34s

    Nodes    |    Current Node    |     Objective Bounds      |     Work
 Expl Unexpl |  Obj  Depth IntInf | Incumbent    BestBd   Gap | It/Node Time

     0     0 23580.8642    0   30 19991.9811 23580.8642  18.0%     -    6s
H    0     0                    22907.839543 23580.8642  2.94%     -    6s

Explored 1 nodes (49356 simplex iterations) in 6.47 seconds (10.56 work units)
Thread count was 20 (of 20 available processors)

Solution count 2: 22907.8 19992 

Optimal solution found (tolerance 5.00e-02)
Best objective 2.290783954284e+04, best bound 2.358086419753e+04, gap 2.9380%

User-callback calls 1863, time in user-callback 0.00 sec
Set parameter TimeLimit to value 7172
Gurobi Optimizer version 9.5.2 build v9.5.2rc0 (win64)
Thread count: 10 physical cores, 20 logical processors, using up to 20 threads
Optimize a model with 78332 rows, 22921 columns and 263410 nonzeros
Model fingerprint: 0x471b0a4e
Variable types: 20665 continuous, 2256 integer (2256 binary)
Coefficient statistics:
  Matrix range     [1e-01, 8e+02]
  Objective range  [1e+00, 1e+00]
  Bounds range     [1e+03, 1e+03]
  RHS range        [1e+00, 2e+06]

MIP start from previous solve produced solution with objective 20587.5 (0.26s)
Loaded MIP start from previous solve with objective 20587.5

Presolve removed 7728 rows and 2409 columns
Presolve time: 0.65s
Presolved: 70604 rows, 20512 columns, 233485 nonzeros
Variable types: 19249 continuous, 1263 integer (1260 binary)

Deterministic concurrent LP optimizer: primal and dual simplex (primal and dual model)
Showing first log only...

Root relaxation presolve removed 25 rows and 25 columns
Root relaxation presolved: 70579 rows, 20487 columns, 233435 nonzeros

Concurrent spin time: 0.27s

Solved with dual simplex (primal model)

Root relaxation: objective 2.355062e+04, 29769 iterations, 2.68 seconds (3.26 work units)
Total elapsed time = 5.96s

    Nodes    |    Current Node    |     Objective Bounds      |     Work
 Expl Unexpl |  Obj  Depth IntInf | Incumbent    BestBd   Gap | It/Node Time

     0     0 23550.6173    0   54 20587.4750 23550.6173  14.4%     -    8s
H    0     0                    22521.900529 23550.6173  4.57%     -    8s
